n_res = 6;
rcap = [15, 16, 18, 9, 112, 107];
rtype = [1, 1, 1, 1, 2, 2];
n_tasks = 16;
modes = [ {1, 2, 3}, {4, 5, 6}, {7, 8, 9}, {10, 11, 12}, {13, 14, 15}, {16, 17, 18}, {19, 20, 21}, {22, 23, 24}, {25, 26, 27}, {28, 29, 30}, {31, 32, 33}, {34, 35, 36}, {37, 38, 39}, {40, 41, 42}, {43, 44, 45}, {46, 47, 48} ];
succ = [ {7, 8, 9}, {4, 5, 7}, {6, 7, 8}, {6, 12}, {8, 10, 11}, {10, 13, 15}, {16}, {12, 14}, {10, 15}, {14}, {16}, {15}, {14, 16}, {}, {}, {} ];
n_opt = 48;
dur = [4, 4, 10, 2, 8, 10, 4, 7, 8, 7, 9, 10, 3, 5, 9, 5, 8, 10, 7, 9, 10, 3, 3, 5, 3, 6, 6, 2, 8, 8, 4, 5, 9, 2, 7, 9, 7, 9, 10, 3, 4, 10, 2, 4, 5, 1, 8, 9];
rreq = [|  0,  0,  0,  5,  0,  0,  9,  0,  0,  0,  5,  3,  6,  0,  0,  0,  0,  9,  0,  8,  7,  0,  0,  2,  6,  0,  0,  0,  8,  2,  3,  2,  0,  0,  6,  0,  8,  6,  5,  0,  8,  7,  0,  0,  0,  0,  7,  3
        |  9,  0,  9,  0,  2,  1,  8,  0,  8,  0,  0,  0,  5,  5,  0,  0,  0,  0,  0, 10,  0,  0,  8,  0,  8,  0,  3,  4,  4,  4,  9,  0,  6,  0,  3,  2,  0, 10,  8,  7,  0,  4,  0,  8,  0,  6,  0,  3
        |  0,  0,  0,  8,  7,  0,  0,  8,  8,  9,  9,  0,  0,  0,  0,  0,  9,  0,  5,  0,  0,  0,  9,  8,  6,  4,  5,  6,  0,  0,  9,  0,  0,  0,  0,  0,  2,  0,  0,  5,  0,  0,  6,  3,  3,  0,  3,  0
        |  0,  8,  7,  0,  3,  2,  0,  0,  4,  1,  1,  0,  9,  0,  5,  4,  0,  0,  6,  5,  0,  4,  0,  0,  5,  4,  0,  3,  3,  1,  0,  1,  0,  3,  2,  0,  0,  7,  0,  0,  2,  0,  6,  0,  5,  7,  0,  6
        |  5,  8,  2,  7,  6,  4,  9,  7,  6,  7,  5,  4, 10,  5,  3,  6,  5,  4,  8,  8,  7,  7,  7,  7,  6,  3,  4,  7,  2,  4,  6,  4,  4,  4,  3,  2,  8,  4,  4,  7,  6,  5,  7,  6,  2,  5,  4,  2
        |  8,  8,  8,  8,  7,  5,  7,  4,  1,  7,  6,  5,  1,  1,  1,  8,  8,  7, 10,  9,  9,  8, 10,  6,  7,  2,  5,  5,  4,  3,  6,  6,  5,  5,  5,  3,  8,  6,  6,  4,  3,  2,  4,  4,  4,  9,  8,  4 |];
